p tw 37 43
1 2
2 13
3 4
4 5
5 6
6 7
7 8
7 15
8 9
9 10
10 11
11 12
12 14
13 24
13 32
14 30
15 16
16 17
16 30
17 18
18 19
18 23
19 20
20 21
21 22
22 23
22 30
23 25
24 32
24 34
25 26
26 27
27 28
28 29
29 30
30 31
32 33
33 30
34 35
35 36
36 37
37 3
37 30
